Version identifier: 22.1.1.0 | 2022-11-28 | 9160aff4d
CPXPARAM_ClockType                               1
CPXPARAM_Read_DataCheck                          1
CPXPARAM_Threads                                 1
CPXPARAM_TimeLimit                               7200
CPXPARAM_MIP_Tolerances_AbsMIPGap                0
CPXPARAM_MIP_Tolerances_MIPGap                   0
CPXPARAM_MIP_Tolerances_Integrality              0
Tried aggregator 6 times.
MIP Presolve eliminated 41556 rows and 5393 columns.
MIP Presolve modified 50933 coefficients.
Aggregator did 26356 substitutions.
Reduced MIP has 273589 rows, 114771 columns, and 848338 nonzeros.
Reduced MIP has 114771 binaries, 0 generals, 0 SOSs, and 0 indicators.
Presolve time = 3.25 sec. (1979.27 ticks)
Probing fixed 513 vars, tightened 0 bounds.
Probing time = 3.07 sec. (944.16 ticks)
Cover probing fixed 0 vars, tightened 1 bounds.
Tried aggregator 4 times.
Detecting symmetries...
MIP Presolve eliminated 8988 rows and 3498 columns.
MIP Presolve modified 190 coefficients.
Aggregator did 295 substitutions.
Reduced MIP has 264306 rows, 110978 columns, and 823574 nonzeros.
Reduced MIP has 110978 binaries, 0 generals, 0 SOSs, and 0 indicators.
Presolve time = 4.65 sec. (2827.57 ticks)
Probing time = 0.11 sec. (30.38 ticks)
Clique table members: 369613.
MIP emphasis: balance optimality and feasibility.
MIP search method: dynamic search.
Parallel mode: none, using 1 thread.
Root relaxation solution time = 490.41 sec. (76398.28 ticks)

        Nodes                                         Cuts/
   Node  Left     Objective  IInf  Best Integer    Best Bound    ItCnt     Gap

      0     0    50135.6389 50642                  50135.6389   187459         
      0     0    49097.6749 49823               Cliques: 9818   413873         
      0     0    47170.1485 48881               Cliques: 10000   643812         

Clique cuts applied:  18130

Root node processing (before b&c):
  Real time             = 7200.23 sec. (2917138.88 ticks)
Sequential b&c:
  Real time             =    0.00 sec. (0.00 ticks)
                          ------------
Total (root+branch&cut) = 7200.23 sec. (2917138.88 ticks)
Solution is infeasible.

---------------------
@@@ MIP_time_limit_infeasible
Traceback (most recent call last):
  File "/scratch/scherif/DiverseSAT-journal_sup/DiverseSAT_Supplementary_Experiments/experiment-1/cplex/jobs/../solvers/CPLEX-BIN-SE.py", line 134, in <module>
    print(f">>> Benchmark {os.path.basename(cnf_file)} k {k} OPT {int(prob.solution.get_objective_value())}"
  File "/users/scherif/.local/lib/python3.9/site-packages/cplex/_internal/_subinterfaces.py", line 7211, in get_objective_value
    return CPX_PROC.getobjval(self._env._e, self._cplex._lp)
  File "/users/scherif/.local/lib/python3.9/site-packages/cplex/_internal/_procedural.py", line 2055, in getobjval
    check_status(env, status)
  File "/users/scherif/.local/lib/python3.9/site-packages/cplex/_internal/_procedural.py", line 249, in __call__
    raise CplexSolverError(error_string, env, status)
cplex.exceptions.errors.CplexSolverError: CPLEX Error  1217: No solution exists.
